34
27
0 28 29 30 31 32
1 28 29 31 33
2 29 31 32 33
3 28 29 31 32 33
4 31 33
5 31 33
6 29 31
7 27 28 29 31
8 29 30 31 32 33
9 30 31 33
10 28 31 32
11 28 31
12 29 31 32
13 28 30 32 33
14 31
15
16 33
17 31 33
18 28 30 31
19 28 33
20 28 30 32
21 28
22 27 28
23
24 29
25 31 33
26 33
